4	143	143	0	16	16
5	144	103	0	0	0
6	236	184	0	0	0
7	279	240	0	16	16
8	267	244	0	15	15
9	261	225	0	31	31
10	385	253	0	0	0
11	438	308	0	187	187
12	377	307	0	15	15
13	541	347	0	31	31
14	551	401	0	31	31
15	675	396	0	47	47
16	560	388	0	15	15
17	656	431	0	94	94
18	634	432	0	203	203
19	875	490	0	93	93
